Problem:    
Rows:       256
Columns:    89 (72 integer, 72 binary)
Non-zeros:  960
Status:     INTEGER OPTIMAL
Objective:  value = 173.135001 (MINimum)

   No.   Row name        Activity     Lower bound   Upper bound
------ ------------    ------------- ------------- -------------
     1 r.5                   1173.14             0               
     2 r.6                  -932.211      -969.996               
     3 r.7                   173.135             0               
     4 r.8                   107.295      -957.566               
     5 r.9                   173.135             0               
     6 r.10                  117.336      -964.864               
     7 r.11                  1173.14             0               
     8 r.12                 -899.431      -951.264               
     9 r.13                  1173.14             0               
    10 r.14                 -886.368      -957.861               
    11 r.15                  173.135             0               
    12 r.16                 -892.831      -930.616               
    13 r.17                  1173.14             0               
    14 r.18                 -962.215       -974.01               
    15 r.19                  173.135             0               
    16 r.20                 -949.188      -960.983               
    17 r.21                  173.135             0               
    18 r.22                  107.636       -978.63               
    19 r.23                  1173.14             0               
    20 r.24                  -951.53      -965.268               
    21 r.25                  1173.14             0               
    22 r.26                 -995.613      -995.613               
    23 r.27                  173.135             0               
    24 r.28                 -944.475      -944.475               
    25 r.29                  173.135             0               
    26 r.30                  173.135      -939.686               
    27 r.31                  1173.14             0               
    28 r.32                 -826.865      -930.797               
    29 r.33                  1173.14             0               
    30 r.34                 -826.865      -940.497               
    31 r.35                  173.135             0               
    32 r.36                  173.135      -930.894               
    33 r.37                        1             1             = 
    34 r.38                        1             1             = 
    35 r.39                        1             1             = 
    36 r.40                        1             1             = 
    37 r.41                        1             1             = 
    38 r.42                        1             1             = 
    39 r.43                        1             1             = 
    40 r.44                        1             1             = 
    41 r.45                     1001             2               
    42 r.46                    -1001         -1001               
    43 r.47                  2045.84      -964.864               
    44 r.48                     1001             2               
    45 r.49                    -1001         -1001               
    46 r.50                  1996.64      -951.264               
    47 r.51                        2             2               
    48 r.52                       -2         -1001               
    49 r.53                 -957.861      -957.861               
    50 r.54                     1000             2               
    51 r.55                    -1000         -1001               
    52 r.56                  1003.24      -930.616               
    53 r.57                        2             2               
    54 r.58                       -2         -1001               
    55 r.59                  -33.708       -974.01               
    56 r.60                     1000             2               
    57 r.61                    -1000         -1001               
    58 r.62                   946.88      -960.983               
    59 r.63                     1001             2               
    60 r.64                    -1001         -1001               
    61 r.65                  2036.14       -978.63               
    62 r.66                     1001             2               
    63 r.67                    -1001         -1001               
    64 r.68                  1944.54      -965.268               
    65 r.69                 -944.006      -969.996               
    66 r.70                  95.4997      -957.566               
    67 r.71                  18.9899      -969.996               
    68 r.72                   1058.5      -957.566               
    69 r.73                  101.642      -939.686               
    70 r.74                 -898.358      -930.797               
    71 r.75                  69.2033      -939.686               
    72 r.76                 -930.797      -930.797               
    73 r.77                        2             2               
    74 r.78                       -2         -1001               
    75 r.79                 -898.358      -940.497               
    76 r.80                     1000             2               
    77 r.81                    -1000         -1001               
    78 r.82                   2069.2      -930.894               
    79 r.83                     1001             2               
    80 r.84                    -1001         -1001               
    81 r.85                  1954.16       30.0041               
    82 r.86                     1001             2               
    83 r.87                    -1001         -1001               
    84 r.88                  2003.36       42.4336               
    85 r.89                     1001             2               
    86 r.90                    -1001         -1001               
    87 r.91                     2000      -957.861               
    88 r.92                     1001             2               
    89 r.93                    -1001         -1001               
    90 r.94                  1003.24      -930.616               
    91 r.95                     1001             2               
    92 r.96                    -1001         -1001               
    93 r.97                  1924.15       -974.01               
    94 r.98                     1001             2               
    95 r.99                    -1001         -1001               
    96 r.100                  946.88      -960.983               
    97 r.101                    1000             2               
    98 r.102                   -1000         -1001               
    99 r.103                    1994       -978.63               
   100 r.104                       2             2               
   101 r.105                      -2         -1001               
   102 r.106                 -55.462      -965.268               
   103 r.107                 105.541      -964.864               
   104 r.108                -911.226      -951.264               
   105 r.109                 1068.54      -964.864               
   106 r.110                 51.7694      -951.264               
   107 r.111                    1000             2               
   108 r.112                   -1000         -1001               
   109 r.113                  2059.5      -939.686               
   110 r.114                       2             2               
   111 r.115                      -2         -1001               
   112 r.116                -930.797      -930.797               
   113 r.117                -940.497      -940.497               
   114 r.118                 59.5032      -930.894               
   115 r.119                -930.797      -940.497               
   116 r.120                 69.2033      -930.894               
   117 r.121                       2             2               
   118 r.122                      -2         -1001               
   119 r.123                 954.157       30.0041               
   120 r.124                    1000             2               
   121 r.125                   -1000         -1001               
   122 r.126                 3000.13       42.4336               
   123 r.127                    1001             2               
   124 r.128                   -1001         -1001               
   125 r.129                  2003.7       35.1364               
   126 r.130                    1001             2               
   127 r.131                   -1001         -1001               
   128 r.132                  2993.4       48.7362               
   129 r.133                -924.153      -957.861               
   130 r.134                -930.616      -930.616               
   131 r.135                 62.8202      -957.861               
   132 r.136                 56.3577      -930.616               
   133 r.137                    1001             2               
   134 r.138                   -1001         -1001               
   135 r.139                    1994       -978.63               
   136 r.140                    1001             2               
   137 r.141                   -1001         -1001               
   138 r.142                  2941.3      -965.268               
   139 r.143                -898.163      -957.861               
   140 r.144                -904.626      -930.616               
   141 r.145                 64.8325      -957.861               
   142 r.146                 58.3699      -930.616               
   143 r.147                    1001             2               
   144 r.148                   -1001         -1001               
   145 r.149                  2059.5      -939.686               
   146 r.150                    1001             2               
   147 r.151                   -1001         -1001               
   148 r.152                 3065.97      -930.797               
   149 r.153                -940.497      -940.497               
   150 r.154                 59.5032      -930.894               
   151 r.155                 65.9657      -940.497               
   152 r.156                 1065.97      -930.894               
   153 r.157                       2             2               
   154 r.158                      -2         -1001               
   155 r.159                 30.0041       30.0041               
   156 r.160                    1000             2               
   157 r.161                   -1000         -1001               
   158 r.162                 3056.48       42.4336               
   159 r.163                    1001             2               
   160 r.164                   -1001         -1001               
   161 r.165                 2079.55       35.1364               
   162 r.166                    1001             2               
   163 r.167                   -1001         -1001               
   164 r.168                 3049.76       48.7362               
   165 r.169                    1001             2               
   166 r.170                   -1001         -1001               
   167 r.171                 2069.85       -978.63               
   168 r.172                    1001             2               
   169 r.173                   -1001         -1001               
   170 r.174                 2997.66      -965.268               
   171 r.175                 -974.01       -974.01               
   172 r.176                -960.983      -960.983               
   173 r.177                -11.0142       -974.01               
   174 r.178                 2.01223      -960.983               
   175 r.179                    1001             2               
   176 r.180                   -1001         -1001               
   177 r.181                 2135.35      -939.686               
   178 r.182                    1001             2               
   179 r.183                   -1001         -1001               
   180 r.184                 3122.32      -930.797               
   181 r.185                 -864.65      -940.497               
   182 r.186                  135.35      -930.894               
   183 r.187                 122.323      -940.497               
   184 r.188                 1122.32      -930.894               
   185 r.189                    1001             2               
   186 r.190                   -1001         -1001               
   187 r.191                 1963.86       30.0041               
   188 r.192                    1001             2               
   189 r.193                   -1001         -1001               
   190 r.194                 2055.46       42.4336               
   191 r.195                    1000             2               
   192 r.196                   -1000         -1001               
   193 r.197                  2013.4       35.1364               
   194 r.198                       2             2               
   195 r.199                      -2         -1001               
   196 r.200                 48.7362       48.7362               
   197 r.201                    1001             2               
   198 r.202                   -1001         -1001               
   199 r.203                  2009.7       42.1386               
   200 r.204                    1001             2               
   201 r.205                   -1001         -1001               
   202 r.206                 1055.34       69.3841               
   203 r.207                    1001             2               
   204 r.208                   -1001         -1001               
   205 r.209                 1933.85       25.9902               
   206 r.210                    1001             2               
   207 r.211                   -1001         -1001               
   208 r.212                 998.979       39.0166               
   209 r.213                 95.8406       -978.63               
   210 r.214                -963.325      -965.268               
   211 r.215                 1058.84       -978.63               
   212 r.216               -0.329689      -965.268               
   213 r.217                 69.2033      -939.686               
   214 r.218                -930.797      -930.797               
   215 r.219                 121.302      -939.686               
   216 r.220                -878.698      -930.797               
   217 r.221                -930.797      -940.497               
   218 r.222                 69.2033      -930.894               
   219 r.223                -878.698      -940.497               
   220 r.224                 121.302      -930.894               
   221 r.225                    1000             2               
   222 r.226                   -1000         -1001               
   223 r.227                  1944.2       35.1364               
   224 r.228                       2             2               
   225 r.229                      -2         -1001               
   226 r.230                 927.434       48.7362               
   227 r.231                    1001             2               
   228 r.232                   -1001         -1001               
   229 r.233                  1940.5       42.1386               
   230 r.234                    1001             2               
   231 r.235                   -1001         -1001               
   232 r.236                 934.034       69.3841               
   233 r.237                    1001             2               
   234 r.238                   -1001         -1001               
   235 r.239                 1864.65       25.9902               
   236 r.240                    1001             2               
   237 r.241                   -1001         -1001               
   238 r.242                 877.677       39.0166               
   239 r.243                    1001             2               
   240 r.244                   -1001         -1001               
   241 r.245                    2000      -940.497               
   242 r.246                    1001             2               
   243 r.247                   -1001         -1001               
   244 r.248                    2000      -930.894               
   245 r.249                       2             2               
   246 r.250                      -2         -1001               
   247 r.251                 894.654       30.0041               
   248 r.252                    1000             2               
   249 r.253                   -1000         -1001               
   250 r.254                 1934.16       42.4336               
   251 r.255                    1001             2               
   252 r.256                   -1001         -1001               
   253 r.257                    2000        60.314               
   254 r.258                    1001             2               
   255 r.259                   -1001         -1001               
   256 r.260                    2000       69.2033               

   No. Column name       Activity     Lower bound   Upper bound
------ ------------    ------------- ------------- -------------
     1 tt                    173.135             0               
     2 s_1_1        *              1             0             1 
     3 t_1_1                 101.642             0               
     4 s_1_7        *              0             0             1 
     5 s_2_1        *              0             0             1 
     6 t_2_1                 69.2033             0               
     7 s_2_7        *              1             0             1 
     8 s_1_2        *              0             0             1 
     9 t_1_2                 59.5032             0               
    10 s_1_8        *              1             0             1 
    11 s_2_2        *              1             0             1 
    12 t_2_2                 69.2033             0               
    13 s_2_8        *              0             0             1 
    14 s_1_3        *              1             0             1 
    15 t_1_3                 59.5032             0               
    16 s_2_3        *              0             0             1 
    17 t_2_3                 1065.97             0               
    18 s_1_4        *              1             0             1 
    19 t_1_4                  135.35             0               
    20 s_2_4        *              0             0             1 
    21 t_2_4                 1122.32             0               
    22 s_1_5        *              0             0             1 
    23 t_1_5                 69.2033             0               
    24 s_2_5        *              1             0             1 
    25 t_2_5                 121.302             0               
    26 s_1_6        *              1             0             1 
    27 t_1_6                  161.34             0               
    28 s_2_6        *              0             0             1 
    29 t_2_6                 1124.34             0               
    30 t_1_7                       0             0               
    31 t_2_7                       0             0               
    32 t_1_8                       0             0               
    33 t_2_8                       0             0               
    34 r_1_1_2      *              1             0             1 
    35 u_1_1_2      *              0             0             1 
    36 r_2_1_2      *              1             0             1 
    37 u_2_1_2      *              0             0             1 
    38 r_1_1_3      *              0             0             1 
    39 u_1_1_3      *              1             0             1 
    40 r_2_1_3      *              1             0             1 
    41 u_2_1_3      *              0             0             1 
    42 r_1_1_4      *              0             0             1 
    43 u_1_1_4      *              0             0             1 
    44 r_2_1_4      *              1             0             1 
    45 u_2_1_4      *              0             0             1 
    46 r_1_1_5      *              1             0             1 
    47 u_1_1_5      *              0             0             1 
    48 r_2_1_5      *              1             0             1 
    49 u_2_1_5      *              0             0             1 
    50 r_1_1_8      *              0             0             1 
    51 u_1_1_8      *              1             0             1 
    52 r_2_1_8      *              1             0             1 
    53 u_2_1_8      *              0             0             1 
    54 r_1_2_3      *              1             0             1 
    55 u_1_2_3      *              0             0             1 
    56 r_2_2_3      *              1             0             1 
    57 u_2_2_3      *              0             0             1 
    58 r_1_2_4      *              1             0             1 
    59 u_1_2_4      *              0             0             1 
    60 r_2_2_4      *              1             0             1 
    61 u_2_2_4      *              0             0             1 
    62 r_1_2_5      *              1             0             1 
    63 u_1_2_5      *              0             0             1 
    64 r_2_2_5      *              0             0             1 
    65 u_2_2_5      *              0             0             1 
    66 r_1_2_7      *              1             0             1 
    67 u_1_2_7      *              0             0             1 
    68 r_2_2_7      *              0             0             1 
    69 u_2_2_7      *              1             0             1 
    70 r_1_3_5      *              1             0             1 
    71 u_1_3_5      *              0             0             1 
    72 r_2_3_5      *              1             0             1 
    73 u_2_3_5      *              0             0             1 
    74 r_1_3_7      *              1             0             1 
    75 u_1_3_7      *              0             0             1 
    76 r_2_3_7      *              1             0             1 
    77 u_2_3_7      *              0             0             1 
    78 r_1_4_5      *              1             0             1 
    79 u_1_4_5      *              0             0             1 
    80 r_2_4_5      *              1             0             1 
    81 u_2_4_5      *              0             0             1 
    82 r_1_4_7      *              1             0             1 
    83 u_1_4_7      *              0             0             1 
    84 r_2_4_7      *              1             0             1 
    85 u_2_4_7      *              0             0             1 
    86 r_1_7_8      *              1             0             1 
    87 u_1_7_8      *              0             0             1 
    88 r_2_7_8      *              1             0             1 
    89 u_2_7_8      *              0             0             1 

Integer feasibility conditions:

KKT.PE: max.abs.err = 4.55e-13 on row 122
        max.rel.err = 1.10e-16 on row 125
        High quality

KKT.PB: max.abs.err = 2.27e-13 on row 24
        max.rel.err = 2.40e-16 on row 24
        High quality

End of output
